%%%%%%%%%%%%%%%%%%%%%%%%%%%%%%%%%%%%%%%%%%%%%%%%%%%%%%%%%%%%%%%%%%%%%%%%%
%FILE DATA:	Soccer Computational Problem for MiniZinc Models
%AUTHORS:	Robinson Duque, Alejandro Arbelaez, Juan Francisco Díaz
%CONTACT:  	robinson.duque@correounivalle.edu.co 
%LAST UPDATE:	May, 2018 
%ROUND ROBIN:2
%TEAMS:20
%PRESENT FIXTURE:32
%FIXTURES TO PLAY:6
%GAMES TO PLAY:60
%%%%%%%%%%%%%%%%%%%%%%%%%%%%%%%%%%%%%%%%%%%%%%%%%%%%%%%%%%%%%%%%%%%%%%%%%
%Number of teams:
n=20;

%For the purpose of our models, we offer two representations of the games to play, namely fixtures and games to play:

%Fixtures to play:
%fixtures=[|0,0,0,0,1,0,0,1,1,0,1,0,0,0,0,0,1,0,1,0
%|0,0,0,0,1,0,0,0,0,0,0,0,1,1,1,1,1,0,0,0
%|0,0,0,1,1,1,1,1,0,1,0,0,0,0,0,0,0,0,0,0
%|0,0,1,0,1,0,1,1,1,1,0,0,0,0,0,0,0,0,0,0
%|1,1,1,1,0,1,0,0,0,1,0,0,0,0,0,0,0,0,0,0
%|0,0,1,0,1,0,1,1,0,0,0,1,0,0,0,0,0,0,1,0
%|0,0,1,1,0,1,0,1,0,0,0,0,0,0,0,0,0,1,0,1
%|1,0,1,1,0,1,1,0,0,1,0,0,0,0,0,0,0,0,0,0
%|1,0,0,1,0,0,0,0,0,1,0,1,0,0,0,0,0,0,1,1
%|0,0,1,1,1,0,0,1,1,0,0,0,0,0,0,0,0,0,1,0
%|1,0,0,0,0,0,0,0,0,0,0,0,1,1,1,1,1,0,0,0
%|0,0,0,0,0,1,0,0,1,0,0,0,1,1,1,0,0,0,1,0
%|0,1,0,0,0,0,0,0,0,0,1,1,0,0,0,1,1,1,0,0
%|0,1,0,0,0,0,0,0,0,0,1,1,0,0,1,0,0,1,0,1
%|0,1,0,0,0,0,0,0,0,0,1,1,0,1,0,0,0,1,0,1
%|0,1,0,0,0,0,0,0,0,0,1,0,1,0,0,0,1,1,0,1
%|1,1,0,0,0,0,0,0,0,0,1,0,1,0,0,1,0,1,0,0
%|0,0,0,0,0,0,1,0,0,0,0,0,1,1,1,1,1,0,0,0
%|1,0,0,0,0,1,0,0,1,1,0,1,0,0,0,0,0,0,0,1
%|0,0,0,0,0,0,1,0,1,0,0,0,0,1,1,1,0,0,1,0|];

%Played Fixtures:
%PlayedFixtures=[|0,2,2,2,1,2,2,1,1,2,1,2,2,2,2,2,1,2,1,2
%|2,0,2,2,1,2,2,2,2,2,2,2,1,1,1,1,1,2,2,2
%|2,2,0,1,1,1,1,1,2,1,2,2,2,2,2,2,2,2,2,2
%|2,2,1,0,1,2,1,1,1,1,2,2,2,2,2,2,2,2,2,2
%|1,1,1,1,0,1,2,2,2,1,2,2,2,2,2,2,2,2,2,2
%|2,2,1,2,1,0,1,1,2,2,2,1,2,2,2,2,2,2,1,2
%|2,2,1,1,2,1,0,1,2,2,2,2,2,2,2,2,2,1,2,1
%|1,2,1,1,2,1,1,0,2,1,2,2,2,2,2,2,2,2,2,2
%|1,2,2,1,2,2,2,2,0,1,2,1,2,2,2,2,2,2,1,1
%|2,2,1,1,1,2,2,1,1,0,2,2,2,2,2,2,2,2,1,2
%|1,2,2,2,2,2,2,2,2,2,0,2,1,1,1,1,1,2,2,2
%|2,2,2,2,2,1,2,2,1,2,2,0,1,1,1,2,2,2,1,2
%|2,1,2,2,2,2,2,2,2,2,1,1,0,2,2,1,1,1,2,2
%|2,1,2,2,2,2,2,2,2,2,1,1,2,0,1,2,2,1,2,1
%|2,1,2,2,2,2,2,2,2,2,1,1,2,1,0,2,2,1,2,1
%|2,1,2,2,2,2,2,2,2,2,1,2,1,2,2,0,1,1,2,1
%|1,1,2,2,2,2,2,2,2,2,1,2,1,2,2,1,0,1,2,2
%|2,2,2,2,2,2,1,2,2,2,2,2,1,1,1,1,1,0,2,2
%|1,2,2,2,2,1,2,2,1,1,2,1,2,2,2,2,2,2,0,1
%|2,2,2,2,2,2,1,2,1,2,2,2,2,1,1,1,2,2,1,0|];

%Games to play:
games=[|4,3|5,1|5,2|5,3|5,4|6,3|6,5|7,3|7,4|7,6|8,1|8,3|8,4|8,6|8,7|9,1|9,4|10,3|10,4|10,5|10,8|10,9|11,1|12,6|12,9|13,2|13,11|13,12|14,2|14,11|14,12|15,2|15,11|15,12|15,14|16,2|16,11|16,13|17,1|17,2|17,11|17,13|17,16|18,7|18,13|18,14|18,15|18,16|18,17|19,1|19,6|19,9|19,10|19,12|20,7|20,9|20,14|20,15|20,16|20,19|];

%Played Games:
%PlayedGames=[|2,1|2,1|3,1|3,1|3,2|3,2|4,1|4,1|4,2|4,2|4,3|5,1|5,2|5,3|5,4|6,1|6,1|6,2|6,2|6,3|6,4|6,4|6,5|7,1|7,1|7,2|7,2|7,3|7,4|7,5|7,5|7,6|8,1|8,2|8,2|8,3|8,4|8,5|8,5|8,6|8,7|9,1|9,2|9,2|9,3|9,3|9,4|9,5|9,5|9,6|9,6|9,7|9,7|9,8|9,8|10,1|10,1|10,2|10,2|10,3|10,4|10,5|10,6|10,6|10,7|10,7|10,8|10,9|11,1|11,2|11,2|11,3|11,3|11,4|11,4|11,5|11,5|11,6|11,6|11,7|11,7|11,8|11,8|11,9|11,9|11,10|11,10|12,1|12,1|12,2|12,2|12,3|12,3|12,4|12,4|12,5|12,5|12,6|12,7|12,7|12,8|12,8|12,9|12,10|12,10|12,11|12,11|13,1|13,1|13,2|13,3|13,3|13,4|13,4|13,5|13,5|13,6|13,6|13,7|13,7|13,8|13,8|13,9|13,9|13,10|13,10|13,11|13,12|14,1|14,1|14,2|14,3|14,3|14,4|14,4|14,5|14,5|14,6|14,6|14,7|14,7|14,8|14,8|14,9|14,9|14,10|14,10|14,11|14,12|14,13|14,13|15,1|15,1|15,2|15,3|15,3|15,4|15,4|15,5|15,5|15,6|15,6|15,7|15,7|15,8|15,8|15,9|15,9|15,10|15,10|15,11|15,12|15,13|15,13|15,14|16,1|16,1|16,2|16,3|16,3|16,4|16,4|16,5|16,5|16,6|16,6|16,7|16,7|16,8|16,8|16,9|16,9|16,10|16,10|16,11|16,12|16,12|16,13|16,14|16,14|16,15|16,15|17,1|17,2|17,3|17,3|17,4|17,4|17,5|17,5|17,6|17,6|17,7|17,7|17,8|17,8|17,9|17,9|17,10|17,10|17,11|17,12|17,12|17,13|17,14|17,14|17,15|17,15|17,16|18,1|18,1|18,2|18,2|18,3|18,3|18,4|18,4|18,5|18,5|18,6|18,6|18,7|18,8|18,8|18,9|18,9|18,10|18,10|18,11|18,11|18,12|18,12|18,13|18,14|18,15|18,16|18,17|19,1|19,2|19,2|19,3|19,3|19,4|19,4|19,5|19,5|19,6|19,7|19,7|19,8|19,8|19,9|19,10|19,11|19,11|19,12|19,13|19,13|19,14|19,14|19,15|19,15|19,16|19,16|19,17|19,17|19,18|19,18|20,1|20,1|20,2|20,2|20,3|20,3|20,4|20,4|20,5|20,5|20,6|20,6|20,7|20,8|20,8|20,9|20,10|20,10|20,11|20,11|20,12|20,12|20,13|20,13|20,14|20,15|20,16|20,17|20,17|20,18|20,18|20,19|];

%Played Games - Win Results:
%% 0  0  0  0  0  0  0  0  0  0  0  0  0  0  0  0  0  0  0  0
%% 0  0  0  0  0  0  0  0  0  0  0  0  0  0  0  0  0  0  0  0
%% 2  1  0  0  0  1  1  0  0  0  2  0  2  1  2  1  1  2  2  0
%% 1  1  1  0  0  0  0  1  0  0  1  0  2  2  2  0  1  2  2  2
%% 0  0  0  0  0  0  0  0  0  0  1  2  0  0  0  1  2  0  2  0
%% 1  0  0  0  0  0  1  1  0  2  1  0  2  1  1  0  0  0  0  0
%% 1  0  0  0  0  0  0  0  0  2  0  0  1  0  1  2  0  0  2  0
%% 1  0  0  0  0  0  0  0  0  0  1  2  0  2  0  1  0  0  0  0
%% 0  2  2  1  2  2  2  2  0  0  2  0  2  0  1  2  1  0  0  0
%% 1  0  0  0  0  0  0  0  0  0  1  2  2  1  1  1  0  2  1  0
%% 0  0  0  0  0  0  0  0  0  0  0  0  0  0  1  0  0  0  0  0
%% 1  0  1  1  0  0  0  0  0  0  0  0  1  0  1  0  1  0  1  0
%% 0  1  0  0  0  0  0  0  0  0  0  0  0  0  0  0  0  0  0  0
%% 0  0  0  0  0  0  0  0  0  0  0  0  0  0  0  0  0  0  0  0
%% 0  0  0  0  0  0  0  0  0  0  0  0  0  1  0  0  0  0  0  0
%% 0  1  0  0  0  0  0  0  0  0  0  0  0  0  0  0  0  0  0  0
%% 0  0  0  0  0  0  0  0  0  0  0  0  0  0  0  0  0  0  0  0
%% 1  0  0  0  1  1  0  0  0  0  0  0  0  1  0  1  1  0  2  0
%% 0  0  0  0  0  0  0  0  0  0  1  0  0  0  0  0  0  0  0  0
%% 2  0  1  0  2  2  0  2  0  2  1  2  0  0  0  0  0  2  0  0
%Played Games - Tie Results:
%% 0  2  0  1  1  1  1  0  1  1  1  1  2  2  2  2  1  1  1  0
%% 2  0  1  1  1  2  2  2  0  2  2  2  0  1  1  0  1  2  2  2
%% 0  1  0  0  1  0  0  1  0  1  0  1  0  1  0  1  1  0  0  1
%% 1  1  0  0  1  2  1  0  0  1  1  1  0  0  0  2  1  0  0  0
%% 1  1  1  1  0  1  2  2  0  1  1  0  2  2  2  1  0  1  0  0
%% 1  2  0  2  1  0  0  0  0  0  1  1  0  1  1  2  2  1  1  0
%% 1  2  0  1  2  0  0  1  0  0  2  2  1  2  1  0  2  1  0  1
%% 0  2  1  0  2  0  1  0  0  1  1  0  2  0  2  1  2  2  2  0
%% 1  0  0  0  0  0  0  0  0  1  0  1  0  2  1  0  1  2  1  1
%% 1  2  1  1  1  0  0  1  1  0  1  0  0  1  1  1  2  0  0  0
%% 1  2  0  1  1  1  2  1  0  1  0  2  1  1  0  1  1  2  1  1
%% 1  2  1  1  0  1  2  0  1  0  2  0  0  1  0  2  1  2  0  0
%% 2  0  0  0  2  0  1  2  0  0  1  0  0  2  2  1  1  1  2  2
%% 2  1  1  0  2  1  2  0  2  1  1  1  2  0  0  2  2  0  2  1
%% 2  1  0  0  2  1  1  2  1  1  0  0  2  0  0  2  2  1  2  1
%% 2  0  1  2  1  2  0  1  0  1  1  2  1  2  2  0  1  0  2  1
%% 1  1  1  1  0  2  2  2  1  2  1  1  1  2  2  1  0  0  2  2
%% 1  2  0  0  1  1  1  2  2  0  2  2  1  0  1  0  0  0  0  0
%% 1  2  0  0  0  1  0  2  1  0  1  0  2  2  2  2  2  0  0  1
%% 0  2  1  0  0  0  1  0  1  0  1  0  2  1  1  1  2  0  1  0
%Played Games - Lose Results:
%% 0  0  2  1  0  1  1  1  0  1  0  1  0  0  0  0  0  1  0  2
%% 0  0  1  1  0  0  0  0  2  0  0  0  1  0  0  1  0  0  0  0
%% 0  0  0  1  0  0  0  0  2  0  0  1  0  0  0  0  0  0  0  1
%% 0  0  0  0  0  0  0  0  1  0  0  1  0  0  0  0  0  0  0  0
%% 0  0  0  0  0  0  0  0  2  0  0  0  0  0  0  0  0  1  0  2
%% 0  0  1  0  0  0  0  0  2  0  0  0  0  0  0  0  0  1  0  2
%% 0  0  1  0  0  1  0  0  2  0  0  0  0  0  0  0  0  0  0  0
%% 0  0  0  1  0  1  0  0  2  0  0  0  0  0  0  0  0  0  0  2
%% 0  0  0  0  0  0  0  0  0  0  0  0  0  0  0  0  0  0  0  0
%% 0  0  0  0  0  2  2  0  0  0  0  0  0  0  0  0  0  0  0  2
%% 0  0  2  1  1  1  0  1  2  1  0  0  0  0  0  0  0  0  1  1
%% 0  0  0  0  2  0  0  2  0  2  0  0  0  0  0  0  0  0  0  2
%% 0  0  2  2  0  2  1  0  2  2  0  1  0  0  0  0  0  0  0  0
%% 0  0  1  2  0  1  0  2  0  1  0  0  0  0  1  0  0  1  0  0
%% 0  0  2  2  0  1  1  0  1  1  1  1  0  0  0  0  0  0  0  0
%% 0  0  1  0  1  0  2  1  2  1  0  0  0  0  0  0  0  1  0  0
%% 0  0  1  1  2  0  0  0  1  0  0  1  0  0  0  0  0  1  0  0
%% 0  0  2  2  0  0  0  0  0  2  0  0  0  0  0  0  0  0  0  2
%% 0  0  2  2  2  0  2  0  0  1  0  1  0  0  0  0  0  2  0  0
%% 0  0  0  2  0  0  0  0  0  0  0  0  0  0  0  0  0  0  0  0

%%Initial points:
iPoints=[21, 26, 63, 66, 43, 46, 46, 40, 74, 50, 23, 38, 22, 23, 24, 25, 25, 40, 22, 62];

%%Initial positions:
%iPositions=[20, 12, 3, 2, 8, 7, 6, 10, 1, 5, 17, 11, 19, 16, 15, 14, 13, 9, 18, 4];

%%Position Constraints:
%numberPositionConstraints=1;

%%Total Fixtures:
%totalFixtures=38;

%%Fixtures to Play:
%fixturesToPlay=6;

%%Position Constraints Built With
%wantedPoints=[0, 1, 1, 3, 1, 0, 1, 3, 1, 3, 3, 0, 0, 0, 1, 1, 3, 1, 0, 0, 0, 0, 3, 0, 1, 3, 0, 1, 1, 1, 1, 0, 0, 1, 1, 0, 3, 0, 0, 0, 1, 1, 1, 1, 1, 3, 3, 3, 3, 0, 0, 1, 0, 1, 3, 1, 3, 1, 0, 0];

%POSITION CONSTRAINTS
%%[|teamID, operator, position|...]
%%operators index:
%%%1 for =  operator
%%%2 for >  operator
%%%3 for >= operator
%%%4 for <  operator
%%%5 for <= operator

positionConstraints=[|17,1,17|];

%SCORE VECTOR CONSTRAINTS
%%[|teamID, operator, wantedPoints|...]
%%operators index:
%%%1 for =  operator
%%%2 for >  operator
%%%3 for >= operator
%%%4 for <  operator
%%%5 for <= operator

%scoreVectorConstraints=[|17,1,28|];

%Instance Features:
%features=T,FP,TF,C,C/T,C/TF,FP/TF,FP/T,FP*C/T,FP*T/C,(C/T)*(FP/TF),Distance,Distance/C,Distance/T,Distance/(C*T)
%values=20,6,38,1,0.05,0.02631578947368421,0.1578947368421053,0.3,0.3,120.0,0.007894736842105263,4,4.0,0.2,0.2



gamesOfEveryTeam=[6,6,6,6,6,6,6,6,6,6,6,6,6,6,6,6,6,6,6,6];
weights=[|64,5,0,31|99,0,0,1|31,63,0,6|46,13,0,41|20,0,0,80|34,39,0,27|6,88,0,6|1,14,0,85|19,60,0,21|27,27,0,46|48,37,0,15|46,35,0,19|75,17,0,8|41,9,0,50|36,43,0,21|77,15,0,8|31,18,0,51|32,24,0,44|100,0,0,0|5,61,0,34|59,26,0,15|77,14,0,9|2,63,0,35|14,52,0,34|66,26,0,8|100,0,0,0|22,50,0,28|97,2,0,1|75,8,0,17|92,6,0,2|85,12,0,3|93,1,0,6|17,27,0,56|73,27,0,0|38,38,0,24|21,35,0,44|13,69,0,18|74,4,0,22|97,2,0,1|77,20,0,3|62,30,0,8|22,38,0,40|26,59,0,15|2,38,0,60|9,51,0,40|91,0,0,9|64,0,0,36|6,17,0,77|51,43,0,6|87,2,0,11|30,45,0,25|5,71,0,24|65,7,0,28|85,0,0,15|27,63,0,10|5,83,0,12|64,28,0,8|40,2,0,58|29,13,0,58|86,1,0,13|];